
n_res = 4;
rcap = [78, 72, 583, 584];
rtype = [1, 1, 2, 2];
n_tasks = 100;
modes =  [{1, 2, 3}, {4, 5, 6}, {7, 8, 9}, {10, 11, 12}, {13, 14, 15}, {16, 17, 18}, {19, 20, 21}, {22, 23, 24}, {25, 26, 27}, {28, 29, 30}, {31, 32, 33}, {34, 35, 36}, {37, 38, 39}, {40, 41, 42}, {43, 44, 45}, {46, 47, 48}, {49, 50, 51}, {52, 53, 54}, {55, 56, 57}, {58, 59, 60}, {61, 62, 63}, {64, 65, 66}, {67, 68, 69}, {70, 71, 72}, {73, 74, 75}, {76, 77, 78}, {79, 80, 81}, {82, 83, 84}, {85, 86, 87}, {88, 89, 90}, {91, 92, 93}, {94, 95, 96}, {97, 98, 99}, {100, 101, 102}, {103, 104, 105}, {106, 107, 108}, {109, 110, 111}, {112, 113, 114}, {115, 116, 117}, {118, 119, 120}, {121, 122, 123}, {124, 125, 126}, {127, 128, 129}, {130, 131, 132}, {133, 134, 135}, {136, 137, 138}, {139, 140, 141}, {142, 143, 144}, {145, 146, 147}, {148, 149, 150}, {151, 152, 153}, {154, 155, 156}, {157, 158, 159}, {160, 161, 162}, {163, 164, 165}, {166, 167, 168}, {169, 170, 171}, {172, 173, 174}, {175, 176, 177}, {178, 179, 180}, {181, 182, 183}, {184, 185, 186}, {187, 188, 189}, {190, 191, 192}, {193, 194, 195}, {196, 197, 198}, {199, 200, 201}, {202, 203, 204}, {205, 206, 207}, {208, 209, 210}, {211, 212, 213}, {214, 215, 216}, {217, 218, 219}, {220, 221, 222}, {223, 224, 225}, {226, 227, 228}, {229, 230, 231}, {232, 233, 234}, {235, 236, 237}, {238, 239, 240}, {241, 242, 243}, {244, 245, 246}, {247, 248, 249}, {250, 251, 252}, {253, 254, 255}, {256, 257, 258}, {259, 260, 261}, {262, 263, 264}, {265, 266, 267}, {268, 269, 270}, {271, 272, 273}, {274, 275, 276}, {277, 278, 279}, {280, 281, 282}, {283, 284, 285}, {286, 287, 288}, {289, 290, 291}, {292, 293, 294}, {295, 296, 297}, {298, 299, 300}];
succ =  [{97, 65, 54, 52, 46, 44, 43, 40, 39, 34, 15, 12}, {100, 66, 65, 60, 58, 55, 53, 50, 40, 37, 33, 26, 23}, {99, 98, 96, 95, 93, 92, 87, 60, 55, 48, 46, 44, 38, 37, 30}, {95, 93, 56, 53, 48, 46, 43, 36, 20}, {99, 96, 95, 91, 60, 58, 56, 54, 53, 52, 47, 46, 40}, {97, 96, 95, 94, 92, 91, 63, 58, 56, 55, 52, 46, 43, 40}, {100, 99, 97, 96, 95, 93, 92, 89, 86, 83, 82, 80, 79, 78, 77, 70, 65, 64, 63, 62, 59, 58, 56, 55, 52}, {98, 97, 94, 91, 89, 86, 85, 78, 65, 64, 63, 58, 57, 55, 52, 43, 39}, {99, 98, 96, 95, 94, 93, 92, 91, 90, 88, 84, 81, 80, 78, 77, 75, 65, 64, 59, 58, 56, 46}, {100, 99, 97, 95, 93, 92, 91, 90, 87, 86, 84, 80, 78, 77, 58, 57, 55, 52, 46}, {96, 95, 93, 91, 90, 87, 77, 65, 63, 61, 58, 55, 52, 46, 44}, {99, 96, 95, 94, 93, 91, 89, 86, 83, 80, 78, 77, 71, 70, 68, 66, 64, 63, 60, 59, 55, 53}, {100, 99, 97, 94, 92, 86, 85, 83, 82, 78, 59, 58, 56, 55, 52, 39}, {95, 92, 91, 89, 84, 83, 82, 81, 79, 78, 76, 71, 68, 65, 59, 55, 54, 40}, {100, 99, 96, 95, 94, 93, 91, 90, 89, 87, 86, 85, 84, 83, 82, 81, 80, 79, 78, 77, 73, 61, 58, 57, 56}, {97, 93, 92, 90, 86, 78, 77, 65, 59, 57, 55, 52, 46, 43}, {99, 98, 95, 94, 93, 92, 90, 88, 86, 85, 84, 82, 80, 77, 73, 58, 57, 56, 52, 47}, {100, 95, 93, 91, 90, 89, 87, 85, 81, 80, 77, 74, 66, 63, 57, 56, 53, 47}, {100, 98, 94, 91, 89, 82, 70, 67, 64, 62, 59, 55, 47, 44}, {100, 99, 98, 97, 90, 89, 86, 85, 84, 83, 82, 81, 80, 79, 78, 77, 76, 75, 73, 58, 57, 55}, {96, 94, 89, 88, 86, 85, 83, 82, 79, 77, 76, 65, 59, 57, 44}, {99, 97, 92, 91, 90, 87, 86, 80, 77, 66, 59, 57, 56, 50, 47}, {97, 96, 95, 94, 91, 88, 87, 86, 84, 81, 77, 75, 72, 71, 63, 46}, {98, 97, 95, 88, 87, 79, 66, 56, 35}, {96, 92, 89, 86, 85, 84, 83, 82, 81, 80, 79, 78, 76, 75, 74, 73, 72, 71, 70, 69, 68, 64}, {97, 93, 92, 88, 78, 77, 75, 57, 56, 43}, {96, 86, 85, 78, 71, 70, 68, 63, 59, 55, 53}, {98, 91, 90, 89, 86, 85, 83, 82, 79, 77, 75, 73, 72, 69, 64, 57}, {98, 96, 94, 89, 88, 84, 83, 79, 68, 66, 59, 54}, {100, 97, 88, 86, 84, 80, 79, 76, 73, 72, 69, 65, 58, 57}, {94, 92, 87, 86, 84, 83, 81, 80, 77, 76, 75, 74, 73, 71, 68, 63}, {86, 85, 84, 81, 80, 78, 77, 76, 75, 74, 71, 70, 68, 55}, {91, 90, 89, 86, 78, 77, 76, 75, 72, 71, 69, 59, 57}, {94, 89, 86, 84, 83, 81, 77, 58, 57, 56}, {82, 77, 75, 74, 73, 71, 70, 69, 50}, {96, 90, 87, 85, 84, 82, 81, 79, 76, 75, 74, 70, 69, 68}, {91, 83, 81, 79, 78, 76, 74, 71, 70, 68, 63, 56}, {91, 90, 88, 84, 83, 82, 81, 80, 71, 69, 57}, {93, 90, 87, 84, 80, 79, 77, 75, 72, 71, 70, 68}, {98, 93, 90, 88, 86, 80, 77, 75, 70, 69, 64}, {94, 90, 86, 83, 80, 79, 78, 70, 68, 58}, {85, 76, 71, 70, 68, 65, 56, 55}, {84, 82, 81, 80, 79, 76, 73, 72, 71, 69}, {84, 81, 80, 78, 73, 71, 68, 56}, {94, 81, 78, 76, 71, 70, 68, 56}, {89, 85, 83, 82, 79, 73, 70, 68}, {83, 78, 76, 72, 71, 69, 68}, {89, 82, 81, 77, 75, 70, 68}, {87, 86, 81, 79, 78, 73, 68}, {85, 83, 78, 76, 72, 68}, {91, 89, 82, 77, 73, 70}, {81, 76, 75, 69, 68}, {92, 82, 79, 75, 73}, {87, 80, 77, 69}, {88, 72, 69}, {72, 69}, {70, 68}, {74, 71}, {74, 73}, {84, 79}, {75, 70}, {85, 75}, {69}, {87}, {74}, {76}, {78}, {}, {}, {}, {}, {}, {}, {}, {}, {}, {}, {}, {}, {}, {}, {}, {}, {}, {}, {}, {}, {}, {}, {}, {}, {}, {}, {}, {}, {}, {}, {}, {}, {}];
n_opt = 300;
dur = [3, 4, 5, 3, 7, 8, 1, 2, 4, 3, 5, 10, 6, 7, 10, 6, 7, 8, 4, 7, 9, 6, 8, 9, 1, 4, 9, 2, 4, 10, 4, 7, 9, 5, 8, 9, 4, 5, 9, 2, 4, 7, 2, 4, 6, 3, 6, 7, 2, 3, 7, 2, 5, 8, 5, 5, 6, 5, 6, 7, 2, 9, 10, 5, 8, 9, 3, 4, 9, 1, 2, 10, 2, 6, 7, 5, 6, 6, 1, 9, 10, 4, 4, 5, 2, 5, 6, 2, 4, 6, 2, 4, 7, 2, 5, 7, 4, 8, 10, 4, 6, 8, 3, 6, 10, 5, 6, 9, 2, 2, 6, 1, 2, 7, 1, 6, 10, 5, 6, 8, 4, 10, 10, 4, 6, 7, 2, 4, 10, 1, 2, 4, 1, 5, 6, 1, 6, 6, 6, 8, 9, 1, 5, 8, 1, 6, 7, 1, 3, 4, 4, 8, 9, 1, 4, 6, 4, 8, 10, 3, 8, 8, 1, 5, 9, 7, 8, 10, 5, 5, 9, 7, 8, 9, 2, 5, 5, 4, 5, 9, 4, 5, 9, 4, 5, 7, 3, 8, 10, 1, 3, 4, 1, 4, 8, 1, 4, 6, 1, 2, 4, 2, 2, 3, 2, 3, 9, 1, 2, 8, 2, 3, 10, 1, 5, 9, 1, 5, 7, 1, 2, 6, 2, 5, 9, 4, 5, 7, 4, 5, 10, 8, 9, 10, 3, 4, 9, 1, 2, 6, 3, 3, 5, 1, 2, 4, 3, 6, 9, 4, 7, 9, 4, 5, 7, 2, 5, 8, 1, 4, 8, 2, 5, 10, 3, 5, 7, 5, 6, 10, 2, 4, 8, 7, 7, 8, 2, 3, 10, 4, 5, 10, 1, 3, 5, 6, 8, 9, 1, 1, 10, 2, 2, 4, 1, 7, 10, 4, 5, 9];
rreq = [|0, 0, 1, 0, 4, 0, 0, 5, 3, 6, 0, 4, 7, 0, 3, 9, 0, 8, 6, 5, 5, 0, 0, 0, 6, 6, 0, 9, 6, 4, 10, 0, 0, 7, 0, 3, 3, 2, 2, 2, 2, 2, 0, 2, 0, 8, 0, 0, 5, 3, 2, 8, 6, 4, 7, 0, 4, 0, 0, 3, 7, 5, 4, 5, 0, 3, 9, 5, 3, 1, 0, 1, 0, 0, 0, 0, 6, 0, 0, 0, 6, 0, 3, 3, 0, 0, 0, 6, 6, 6, 8, 0, 0, 5, 5, 3, 7, 6, 3, 2, 2, 0, 0, 0, 0, 0, 7, 7, 0, 6, 5, 5, 4, 0, 5, 0, 3, 9, 9, 9, 0, 5, 0, 0, 3, 0, 0, 0, 8, 0, 0, 4, 0, 0, 0, 0, 2, 0, 0, 0, 8, 8, 0, 6, 0, 0, 0, 7, 0, 0, 8, 0, 0, 0, 0, 7, 0, 4, 0, 6, 0, 2, 4, 2, 2, 0, 0, 4, 0, 3, 0, 5, 0, 1, 0, 4, 0, 8, 8, 8, 0, 0, 0, 0, 0, 3, 5, 0, 0, 0, 0, 2, 0, 0, 0, 0, 0, 0, 0, 0, 6, 6, 0, 4, 6, 6, 0, 0, 4, 3, 0, 5, 3, 0, 0, 0, 0, 8, 8, 5, 4, 4, 7, 4, 4, 8, 0, 0, 4, 0, 4, 9, 0, 3, 10, 10, 0, 0, 9, 0, 0, 1, 0, 0, 0, 7, 8, 7, 0, 0, 9, 0, 0, 5, 0, 0, 0, 2, 0, 0, 0, 0, 5, 2, 6, 4, 0, 9, 8, 8, 6, 5, 0, 0, 6, 0, 4, 0, 1, 3, 0, 0, 3, 0, 2, 8, 0, 0, 0, 6, 6, 0, 6, 3, 7, 0, 0, 0, 0, 3
 |8, 7, 0, 10, 0, 8, 6, 0, 0, 0, 8, 0, 0, 3, 0, 0, 2, 0, 0, 0, 0, 7, 7, 7, 0, 0, 10, 0, 0, 0, 0, 6, 3, 0, 8, 0, 0, 0, 0, 0, 0, 0, 6, 0, 5, 0, 3, 2, 0, 0, 0, 0, 0, 0, 0, 5, 0, 1, 1, 0, 0, 0, 0, 0, 8, 0, 0, 0, 0, 0, 4, 0, 9, 9, 8, 7, 0, 2, 7, 7, 0, 3, 0, 0, 6, 5, 4, 0, 0, 0, 0, 3, 2, 0, 0, 0, 0, 0, 0, 0, 0, 4, 8, 8, 8, 6, 0, 0, 7, 0, 0, 0, 0, 6, 0, 8, 0, 0, 0, 0, 9, 0, 5, 5, 0, 3, 5, 5, 0, 4, 2, 0, 6, 6, 4, 4, 0, 3, 4, 2, 0, 0, 6, 0, 4, 4, 4, 0, 5, 4, 0, 2, 2, 7, 7, 0, 9, 0, 6, 0, 6, 0, 0, 0, 0, 6, 5, 0, 7, 0, 6, 0, 3, 0, 5, 0, 1, 0, 0, 0, 4, 3, 2, 6, 5, 0, 0, 7, 7, 2, 1, 0, 1, 1, 1, 8, 7, 6, 4, 4, 0, 0, 6, 0, 0, 0, 7, 6, 0, 0, 10, 0, 0, 10, 5, 2, 8, 0, 0, 0, 0, 0, 0, 0, 0, 0, 6, 2, 0, 4, 0, 0, 2, 0, 0, 0, 8, 9, 0, 5, 6, 0, 4, 4, 3, 0, 0, 0, 4, 6, 0, 3, 8, 0, 8, 5, 3, 0, 7, 4, 3, 10, 0, 0, 0, 0, 1, 0, 0, 0, 0, 0, 2, 9, 0, 7, 0, 2, 0, 0, 5, 3, 0, 4, 0, 0, 2, 2, 6, 0, 0, 7, 0, 0, 0, 2, 1, 8, 8, 0
 |8, 6, 4, 4, 3, 2, 4, 3, 2, 6, 5, 5, 8, 8, 7, 5, 4, 4, 5, 4, 4, 8, 6, 2, 10, 10, 10, 7, 3, 2, 8, 6, 2, 9, 7, 5, 7, 7, 6, 8, 8, 8, 5, 2, 1, 7, 6, 5, 4, 3, 2, 10, 4, 2, 8, 6, 4, 6, 3, 1, 9, 9, 9, 8, 8, 8, 8, 7, 7, 3, 3, 3, 8, 6, 5, 3, 3, 3, 5, 4, 4, 6, 4, 2, 3, 1, 1, 4, 2, 2, 9, 8, 8, 7, 4, 4, 8, 7, 5, 2, 2, 2, 9, 7, 6, 10, 8, 8, 3, 2, 2, 8, 7, 7, 8, 4, 1, 9, 9, 8, 5, 3, 2, 6, 4, 3, 10, 9, 7, 3, 2, 2, 7, 4, 4, 7, 6, 6, 9, 9, 9, 5, 3, 1, 6, 5, 5, 9, 9, 9, 8, 7, 7, 5, 3, 3, 6, 6, 2, 6, 5, 5, 3, 3, 3, 10, 8, 6, 9, 8, 7, 9, 8, 7, 5, 4, 4, 3, 3, 3, 9, 6, 5, 7, 5, 3, 8, 5, 3, 4, 4, 3, 8, 7, 6, 2, 2, 2, 4, 4, 4, 9, 7, 7, 8, 6, 2, 5, 3, 1, 8, 7, 4, 2, 2, 2, 8, 5, 5, 3, 3, 3, 7, 7, 3, 5, 3, 3, 6, 6, 5, 8, 3, 1, 5, 2, 1, 9, 6, 6, 5, 4, 3, 6, 4, 3, 10, 10, 10, 3, 2, 2, 7, 6, 6, 7, 5, 5, 10, 8, 7, 5, 4, 1, 7, 5, 3, 3, 2, 2, 7, 3, 1, 3, 2, 2, 6, 5, 5, 6, 5, 5, 9, 8, 8, 4, 2, 2, 2, 2, 2, 7, 7, 5, 1, 1, 1, 8, 7, 5
 |5, 5, 5, 4, 3, 3, 7, 5, 3, 7, 5, 5, 2, 1, 1, 6, 6, 3, 9, 9, 8, 1, 1, 1, 6, 4, 3, 7, 6, 6, 10, 9, 8, 8, 7, 5, 6, 6, 5, 8, 7, 5, 10, 8, 4, 2, 2, 2, 3, 3, 3, 5, 4, 4, 8, 6, 5, 4, 2, 2, 10, 7, 4, 7, 4, 3, 7, 3, 1, 8, 5, 4, 6, 4, 3, 10, 6, 4, 5, 4, 2, 6, 5, 4, 10, 9, 9, 9, 9, 8, 9, 7, 6, 2, 2, 2, 4, 3, 1, 7, 6, 7, 7, 6, 6, 9, 7, 5, 7, 5, 5, 5, 5, 5, 7, 7, 6, 9, 7, 6, 6, 4, 2, 8, 3, 3, 6, 4, 4, 7, 6, 6, 5, 5, 4, 6, 3, 2, 5, 5, 4, 8, 7, 4, 9, 8, 6, 9, 8, 8, 5, 3, 2, 10, 10, 10, 6, 6, 3, 8, 4, 3, 7, 6, 5, 7, 4, 3, 10, 8, 7, 1, 1, 1, 7, 5, 2, 7, 6, 5, 3, 3, 3, 9, 9, 8, 6, 6, 3, 6, 6, 5, 9, 7, 4, 5, 4, 2, 2, 1, 1, 6, 5, 3, 10, 8, 8, 5, 5, 3, 9, 5, 2, 6, 4, 2, 4, 3, 2, 6, 4, 3, 1, 1, 1, 10, 7, 6, 8, 5, 4, 4, 2, 1, 6, 4, 4, 8, 5, 2, 4, 3, 1, 8, 7, 5, 10, 9, 8, 8, 5, 4, 4, 4, 3, 5, 4, 4, 3, 2, 2, 9, 9, 9, 5, 4, 4, 3, 2, 1, 4, 2, 2, 3, 3, 3, 7, 6, 2, 4, 2, 2, 5, 4, 3, 9, 7, 6, 8, 7, 6, 9, 9, 9, 5, 4, 4, 9, 7, 4|];